

******************************************************************************
This program contains Ipopt, a library for large-scale nonlinear optimization.
 Ipopt is released as open source code under the Eclipse Public License (EPL).
         For more information visit https://github.com/coin-or/Ipopt
******************************************************************************

This is Ipopt version 3.14.11, running with linear solver MUMPS 5.5.1.

Number of nonzeros in equality constraint Jacobian...:       85
Number of nonzeros in inequality constraint Jacobian.:        0
Number of nonzeros in Lagrangian Hessian.............:     3558

Total number of variables............................:       85
                     variables with only lower bounds:        0
                variables with lower and upper bounds:       85
                     variables with only upper bounds:        0
Total number of equality constraints.................:        1
Total number of inequality constraints...............:        0
        inequality constraints with only lower bounds:        0
   inequality constraints with lower and upper bounds:        0
        inequality constraints with only upper bounds:        0

iter    objective    inf_pr   inf_du lg(mu)  ||d||  lg(rg) alpha_du alpha_pr  ls
   0  5.9984962e-01 1.50e-01 5.64e+00  -1.0 0.00e+00    -  0.00e+00 0.00e+00   0
   1  1.6333672e-01 7.35e-03 6.78e-01  -1.0 1.76e-02    -  1.00e+00 9.51e-01f  1
   2  1.7171060e-01 2.22e-16 2.30e-15  -1.7 1.78e-03    -  1.00e+00 1.00e+00f  1
   3  8.1923803e-02 2.22e-16 1.16e+00  -3.8 2.31e-02    -  5.60e-01 1.00e+00f  1
   4  5.3243141e-02 4.44e-16 6.75e-01  -3.8 1.98e-02    -  6.00e-01 1.00e+00f  1
   5  4.4109603e-02 5.55e-16 1.87e-01  -3.8 1.24e-02    -  7.84e-01 1.00e+00f  1
   6  3.9581152e-02 0.00e+00 3.03e-02  -3.8 6.47e-03    -  8.89e-01 1.00e+00f  1
   7  3.7451195e-02 0.00e+00 2.02e-15  -3.8 4.83e-03    -  1.00e+00 1.00e+00f  1
   8  3.6160733e-02 2.22e-16 1.77e-02  -5.7 5.29e-03    -  7.43e-01 1.00e+00f  1
   9  3.5399771e-02 4.44e-16 1.38e-02  -5.7 7.40e-03    -  6.26e-01 1.00e+00f  1
iter    objective    inf_pr   inf_du lg(mu)  ||d||  lg(rg) alpha_du alpha_pr  ls
  10  3.5129219e-02 6.66e-16 2.24e-03  -5.7 3.64e-03    -  8.99e-01 1.00e+00f  1
  11  3.5063451e-02 6.66e-16 3.37e-15  -5.7 1.22e-03    -  1.00e+00 1.00e+00f  1
  12  3.5020877e-02 4.44e-16 2.82e-04  -8.6 1.06e-03    -  9.53e-01 8.91e-01f  1
  13  3.5014133e-02 8.88e-16 1.41e-04  -8.6 2.98e-04    -  9.73e-01 9.02e-01f  1
  14  3.5013103e-02 8.88e-16 2.88e-15  -8.6 9.12e-05    -  1.00e+00 1.00e+00f  1
  15  3.5013029e-02 4.44e-16 2.86e-15  -8.6 3.19e-05    -  1.00e+00 1.00e+00f  1
  16  3.5012986e-02 2.22e-16 3.24e-15  -9.0 1.36e-05    -  1.00e+00 1.00e+00h  1

Number of Iterations....: 16

                                   (scaled)                 (unscaled)
Objective...............:   3.5012985957745622e-02    3.5012985957745622e-02
Dual infeasibility......:   3.2388819177078794e-15    3.2388819177078794e-15
Constraint violation....:   2.2204460492503131e-16    2.2204460492503131e-16
Variable bound violation:   0.0000000000000000e+00    0.0000000000000000e+00
Complementarity.........:   3.1100244253658328e-09    3.1100244253658328e-09
Overall NLP error.......:   3.1100244253658328e-09    3.1100244253658328e-09


Number of objective function evaluations             = 17
Number of objective gradient evaluations             = 17
Number of equality constraint evaluations            = 17
Number of inequality constraint evaluations          = 0
Number of equality constraint Jacobian evaluations   = 17
Number of inequality constraint Jacobian evaluations = 0
Number of Lagrangian Hessian evaluations             = 16
Total seconds in IPOPT                               = 0.032

EXIT: Optimal Solution Found.
 
Ipopt 3.14.11: Optimal Solution Found
